NAME : BHR104C.1188782.tour
COMMENT : Cost = 0_1188782
COMMENT : Found by LKH [Keld Helsgaun] Tue Apr 25 18:02:03 2017
TYPE : TOUR
DIMENSION : 111
TOUR_SECTION
1
25
79
35
36
66
82
4
13
27
108
29
2
70
77
80
30
56
26
55
103
93
94
86
45
17
85
18
62
6
90
111
98
44
16
54
102
42
23
24
68
40
57
5
22
59
110
7
95
96
88
3
74
75
76
73
41
106
8
83
61
100
46
47
37
48
19
107
58
43
15
39
87
92
99
38
101
60
109
53
89
20
12
50
65
64
91
33
31
104
71
21
67
72
10
52
34
69
81
78
51
105
28
32
11
63
49
9
84
97
14
-1
EOF
